
Gurobi 7.5.2 (linux64) logging started Sat Jun 23 16:49:30 2018

Changed value of parameter LogFile to result/ilp/simNo_10-n_100-m_40-s_4-minVAF_0.05-cov_2000-k_2-fn_0.25-fp_0.0001-na_0.15.ILP.gurobiSolverLog
   Prev: gurobi.log  Default: 
Changed value of parameter TimeLimit to 86400.0
   Prev: 1e+100  Min: 0.0  Max: 1e+100  Default: 1e+100
Optimize a model with 1265601 rows, 330440 columns and 3489120 nonzeros
Variable types: 0 continuous, 330440 integer (330440 binary)
Coefficient statistics:
  Matrix range     [5e-04, 3e+00]
  Objective range  [1e+00, 2e+01]
  Bounds range     [1e+00, 1e+00]
  RHS range        [3e-01, 2e+00]
Found heuristic solution: objective -14082.83072
Presolve removed 343381 rows and 215771 columns (presolve time = 6s) ...
Presolve removed 343839 rows and 215771 columns (presolve time = 10s) ...
Presolve removed 343839 rows and 215771 columns (presolve time = 15s) ...
Presolve removed 343839 rows and 215771 columns (presolve time = 20s) ...
Presolve removed 343839 rows and 215771 columns (presolve time = 25s) ...
Presolve removed 343839 rows and 215771 columns (presolve time = 30s) ...
Presolve removed 343839 rows and 215771 columns (presolve time = 35s) ...
Presolve removed 343839 rows and 215771 columns (presolve time = 40s) ...
Presolve removed 343839 rows and 215771 columns (presolve time = 47s) ...
Presolve removed 343839 rows and 215771 columns
Presolve time: 49.21s
Presolved: 921762 rows, 114669 columns, 2555880 nonzeros
Variable types: 0 continuous, 114669 integer (114669 binary)
Presolved: 114669 rows, 1036431 columns, 2670549 nonzeros

Presolve removed 114669 rows and 1036431 columns

Root simplex log...

Iteration    Objective       Primal Inf.    Dual Inf.      Time
       0    3.8766491e+01   0.000000e+00   9.570600e+04     59s
    6804   -1.1809405e+02   0.000000e+00   2.208620e+05     60s
   19385   -2.3188187e+02   0.000000e+00   3.375469e+05     65s
   29645   -2.5736429e+02   0.000000e+00   7.667852e+05     70s
   38195   -2.7705119e+02   0.000000e+00   9.385433e+04     75s
   49025   -3.0417030e+02   0.000000e+00   6.439737e+04     80s
   57575   -3.2208514e+02   0.000000e+00   2.819555e+05     85s
   67835   -3.3655697e+02   0.000000e+00   2.117035e+05     90s
   77525   -3.4878053e+02   0.000000e+00   1.160089e+05     95s
   88355   -3.6263226e+02   0.000000e+00   2.848958e+05    100s
   98045   -3.7472387e+02   0.000000e+00   2.672300e+05    105s
  105877   -3.8669972e+02   0.000000e+00   0.000000e+00    109s
  105877   -3.8669972e+02   0.000000e+00   0.000000e+00    112s

Root relaxation: objective -3.866997e+02, 105877 iterations, 59.30 seconds
Total elapsed time = 187.83s
Total elapsed time = 211.97s
Total elapsed time = 243.68s

    Nodes    |    Current Node    |     Objective Bounds      |     Work
 Expl Unexpl |  Obj  Depth IntInf | Incumbent    BestBd   Gap | It/Node Time

     0     0 -386.69972    0 1745 -14082.831 -386.69972  97.3%     -  252s
H    0     0                    -485.1137919 -386.69972  20.3%     -  372s
     0     0 -390.40912    0 1787 -485.11379 -390.40912  19.5%     -  458s
H    0     0                    -477.8891981 -390.40912  18.3%     -  575s
     0     0 -394.47805    0 1830 -477.88920 -394.47805  17.5%     -  715s
H    0     0                    -476.7144621 -394.47805  17.3%     -  822s
     0     0 -394.53286    0 1849 -476.71446 -394.53286  17.2%     -  904s
     0     0 -394.61546    0 1884 -476.71446 -394.61546  17.2%     -  926s
     0     0 -395.20283    0 1879 -476.71446 -395.20283  17.1%     -  963s
     0     0 -395.20283    0 1879 -476.71446 -395.20283  17.1%     - 1085s
     0     0 -396.93670    0 1796 -476.71446 -396.93670  16.7%     - 1152s
     0     0 -397.53526    0 1792 -476.71446 -397.53526  16.6%     - 1337s
     0     0 -397.54052    0 1846 -476.71446 -397.54052  16.6%     - 1352s
     0     0 -398.12789    0 1847 -476.71446 -398.12789  16.5%     - 1384s
     0     0 -398.99052    0 1843 -476.71446 -398.99052  16.3%     - 1522s
     0     0 -399.30262    0 1835 -476.71446 -399.30262  16.2%     - 1540s
     0     0 -399.30262    0 1829 -476.71446 -399.30262  16.2%     - 1549s
     0     0 -401.09024    0 1780 -476.71446 -401.09024  15.9%     - 1597s
     0     0 -401.38392    0 1774 -476.71446 -401.38392  15.8%     - 1793s
     0     0 -401.38392    0 1784 -476.71446 -401.38392  15.8%     - 1805s
     0     0 -401.67761    0 1769 -476.71446 -401.67761  15.7%     - 1836s
     0     0 -402.25167    0 1835 -476.71446 -402.25167  15.6%     - 1963s
     0     0 -402.25167    0 1841 -476.71446 -402.25167  15.6%     - 1974s
     0     0 -404.03242    0 1802 -476.71446 -404.03242  15.2%     - 2076s
     0     0 -404.26855    0 1799 -476.71446 -404.26855  15.2%     - 2191s
     0     0 -404.38603    0 1793 -476.71446 -404.38603  15.2%     - 2205s
     0     0 -404.38603    0 1776 -476.71446 -404.38603  15.2%     - 2213s
     0     0 -404.97340    0 1808 -476.71446 -404.97340  15.0%     - 2250s
     0     0 -405.10392    0 1777 -476.71446 -405.10392  15.0%     - 2429s
     0     0 -405.20182    0 1774 -476.71446 -405.20182  15.0%     - 2447s
     0     0 -405.20182    0 1775 -476.71446 -405.20182  15.0%     - 2458s
     0     0 -406.42105    0 1769 -476.71446 -406.42105  14.7%     - 2495s
     0     0 -406.67024    0 1750 -476.71446 -406.67024  14.7%     - 2617s
     0     0 -406.67024    0 1751 -476.71446 -406.67024  14.7%     - 2628s
     0     0 -406.67024    0 1757 -476.71446 -406.67024  14.7%     - 2655s
     0     0 -406.77703    0 1797 -476.71446 -406.77703  14.7%     - 2674s
     0     0 -406.78771    0 1804 -476.71446 -406.78771  14.7%     - 2684s
     0     0 -406.78771    0 1806 -476.71446 -406.78771  14.7%     - 2696s
     0     0 -408.63566    0 1768 -476.71446 -408.63566  14.3%     - 2768s
     0     0 -408.66420    0 1762 -476.71446 -408.66420  14.3%     - 2905s
     0     0 -408.71314    0 1768 -476.71446 -408.71314  14.3%     - 2918s
     0     0 -408.76209    0 1778 -476.71446 -408.76209  14.3%     - 2935s
     0     0 -408.76209    0 1782 -476.71446 -408.76209  14.3%     - 2949s
     0     0 -409.01971    0 1774 -476.71446 -409.01971  14.2%     - 2993s
     0     0 -409.16655    0 1757 -476.71446 -409.16655  14.2%     - 3106s
     0     0 -409.21550    0 1760 -476.71446 -409.21550  14.2%     - 3120s
     0     0 -409.45044    0 1775 -476.71446 -409.45044  14.1%     - 3143s
     0     0 -409.53435    0 1780 -476.71446 -409.53435  14.1%     - 3165s
     0     0 -409.55595    0 1781 -476.71446 -409.55595  14.1%     - 3181s
     0     0 -409.55655    0 1779 -476.71446 -409.55655  14.1%     - 3191s
     0     0 -410.14550    0 1779 -476.71446 -410.14550  14.0%     - 3225s
     0     0 -410.16039    0 1769 -476.71446 -410.16039  14.0%     - 3407s
     0     0 -410.20076    0 1775 -476.71446 -410.20076  14.0%     - 3424s
     0     0 -410.24106    0 1771 -476.71446 -410.24106  13.9%     - 3439s
     0     0 -410.25738    0 1770 -476.71446 -410.25738  13.9%     - 3453s
     0     0 -410.62367    0 1738 -476.71446 -410.62367  13.9%     - 3502s
     0     0 -411.38983    0 1806 -476.71446 -411.38983  13.7%     - 3823s
     0     0 -411.62233    0 1810 -476.71446 -411.62233  13.7%     - 3857s
     0     0 -411.71470    0 1811 -476.71446 -411.71470  13.6%     - 3878s
     0     0 -411.76414    0 1792 -476.71446 -411.76414  13.6%     - 3897s
     0     0 -411.76414    0 1789 -476.71446 -411.76414  13.6%     - 3908s
     0     0 -413.40909    0 1781 -476.71446 -413.40909  13.3%     - 4006s
     0     0 -413.67121    0 1790 -476.71446 -413.67121  13.2%     - 4149s
     0     0 -413.84102    0 1786 -476.71446 -413.84102  13.2%     - 4192s
     0     0 -413.89323    0 1794 -476.71446 -413.89323  13.2%     - 4214s
     0     0 -413.90255    0 1794 -476.71446 -413.90255  13.2%     - 4228s
     0     0 -413.90255    0 1795 -476.71446 -413.90255  13.2%     - 4238s
     0     0 -415.54765    0 1788 -476.71446 -415.54765  12.8%     - 4392s
     0     0 -415.56940    0 1794 -476.71446 -415.56940  12.8%     - 4512s
     0     0 -415.57051    0 1793 -476.71446 -415.57051  12.8%     - 4532s
     0     0 -416.94265    0 1763 -476.71446 -416.94265  12.5%     - 4766s
     0     0 -417.30183    0 1787 -476.71446 -417.30183  12.5%     - 5105s
     0     0 -417.37218    0 1788 -476.71446 -417.37218  12.4%     - 5154s
     0     0 -417.37343    0 1792 -476.71446 -417.37343  12.4%     - 5171s
     0     0 -419.23473    0 1770 -476.71446 -419.23473  12.1%     - 5781s
     0     0 -419.28368    0 1772 -476.71446 -419.28368  12.0%     - 5960s
     0     0 -419.32283    0 1781 -476.71446 -419.32283  12.0%     - 5980s
     0     0 -419.32283    0 1783 -476.71446 -419.32283  12.0%     - 5991s
     0     0 -420.56401    0 1760 -476.71446 -420.56401  11.8%     - 6386s
     0     0 -421.18459    0 1771 -476.71446 -421.18459  11.6%     - 6647s
     0     0 -421.18587    0 1770 -476.71446 -421.18587  11.6%     - 6674s
     0     0 -422.37254    0 1765 -476.71446 -422.37254  11.4%     - 6899s
     0     0 -422.62462    0 1694 -476.71446 -422.62462  11.3%     - 7207s
     0     0 -422.62462    0 1693 -476.71446 -422.62462  11.3%     - 7219s
     0     0 -423.67847    0 1811 -476.71446 -423.67847  11.1%     - 8262s
     0     0 -423.90429    0 1827 -476.71446 -423.90429  11.1%     - 8470s
     0     0 -423.91736    0 1841 -476.71446 -423.91736  11.1%     - 8677s
     0     0 -423.91830    0 1795 -476.71446 -423.91830  11.1%     - 8698s
     0     0 -424.90853    0 1798 -476.71446 -424.90853  10.9%     - 9214s
     0     0 -425.28776    0 1805 -476.71446 -425.28776  10.8%     - 9507s
     0     0 -425.37803    0 1846 -476.71446 -425.37803  10.8%     - 9583s
     0     0 -425.47786    0 1850 -476.71446 -425.47786  10.7%     - 9605s
     0     0 -425.49343    0 1815 -476.71446 -425.49343  10.7%     - 9617s
     0     0 -425.49771    0 1844 -476.71446 -425.49771  10.7%     - 9630s
     0     0 -425.49771    0 1847 -476.71446 -425.49771  10.7%     - 9639s
     0     0 -426.55868    0 1755 -476.71446 -426.55868  10.5%     - 9841s
     0     0 -427.29467    0 1834 -476.71446 -427.29467  10.4%     - 10219s
     0     0 -427.54664    0 1848 -476.71446 -427.54664  10.3%     - 10355s
     0     0 -427.61045    0 1836 -476.71446 -427.61045  10.3%     - 10392s
     0     0 -427.63376    0 1839 -476.71446 -427.63376  10.3%     - 10411s
     0     0 -427.63376    0 1833 -476.71446 -427.63376  10.3%     - 10422s
     0     0 -428.60842    0 1813 -476.71446 -428.60842  10.1%     - 10614s
     0     0 -428.77919    0 1813 -476.71446 -428.77919  10.1%     - 10867s
     0     0 -428.84168    0 1860 -476.71446 -428.84168  10.0%     - 10939s
     0     0 -428.87308    0 1857 -476.71446 -428.87308  10.0%     - 10957s
     0     0 -428.87823    0 1855 -476.71446 -428.87823  10.0%     - 10971s
     0     0 -428.87823    0 1858 -476.71446 -428.87823  10.0%     - 10979s
     0     0 -430.25606    0 1845 -476.71446 -430.25606  9.75%     - 11256s
     0     0 -430.85757    0 1839 -476.71446 -430.85757  9.62%     - 11664s
     0     0 -430.89852    0 1840 -476.71446 -430.89852  9.61%     - 11694s
     0     0 -430.90519    0 1839 -476.71446 -430.90519  9.61%     - 11717s
     0     0 -430.90519    0 1841 -476.71446 -430.90519  9.61%     - 11728s
     0     0 -431.16773    0 1843 -476.71446 -431.16773  9.55%     - 11845s
     0     0 -431.42949    0 1831 -476.71446 -431.42949  9.50%     - 11896s
     0     0 -431.49986    0 1840 -476.71446 -431.49986  9.48%     - 11941s
     0     0 -431.54181    0 1847 -476.71446 -431.54181  9.48%     - 11963s
     0     0 -431.56851    0 1861 -476.71446 -431.56851  9.47%     - 11979s
     0     0 -431.56851    0 1862 -476.71446 -431.56851  9.47%     - 11989s
     0     0 -432.45435    0 1838 -476.71446 -432.45435  9.28%     - 12165s
     0     0 -432.61274    0 1844 -476.71446 -432.61274  9.25%     - 12372s
     0     0 -432.65526    0 1841 -476.71446 -432.65526  9.24%     - 12399s
     0     0 -432.66614    0 1864 -476.71446 -432.66614  9.24%     - 12414s
     0     0 -432.67181    0 1870 -476.71446 -432.67181  9.24%     - 12426s
     0     0 -432.67238    0 1871 -476.71446 -432.67238  9.24%     - 12434s
     0     0 -432.87516    0 1859 -476.71446 -432.87516  9.20%     - 12498s
     0     0 -432.99734    0 1858 -476.71446 -432.99734  9.17%     - 12632s
     0     0 -433.02859    0 1866 -476.71446 -433.02859  9.16%     - 12649s
     0     0 -433.07275    0 1861 -476.71446 -433.07275  9.15%     - 12662s
     0     0 -433.16266    0 1873 -476.71446 -433.16266  9.14%     - 12684s
     0     0 -433.20988    0 1863 -476.71446 -433.20988  9.13%     - 12710s
     0     0 -433.22537    0 1866 -476.71446 -433.22537  9.12%     - 12723s
     0     0 -433.22537    0 1873 -476.71446 -433.22537  9.12%     - 12733s
     0     0 -434.47488    0 1855 -476.71446 -434.47488  8.86%     - 12903s
     0     0 -434.59124    0 1860 -476.71446 -434.59124  8.84%     - 13066s
     0     0 -434.61632    0 1866 -476.71446 -434.61632  8.83%     - 13085s
     0     0 -434.62908    0 1859 -476.71446 -434.62908  8.83%     - 13107s
     0     0 -434.64166    0 1864 -476.71446 -434.64166  8.83%     - 13122s
     0     0 -434.64393    0 1866 -476.71446 -434.64393  8.83%     - 13134s
     0     0 -435.33207    0 1856 -476.71446 -435.33207  8.68%     - 13296s
     0     0 -435.48225    0 1851 -476.71446 -435.48225  8.65%     - 13350s
     0     0 -435.60369    0 1837 -476.71446 -435.60369  8.62%     - 13398s
     0     0 -435.65220    0 1844 -476.71446 -435.65220  8.61%     - 13446s
     0     0 -435.66746    0 1850 -476.71446 -435.66746  8.61%     - 13465s
     0     0 -435.67377    0 1850 -476.71446 -435.67377  8.61%     - 13482s
     0     0 -435.67377    0 1853 -476.71446 -435.67377  8.61%     - 13493s
     0     0 -436.32068    0 1843 -476.71446 -436.32068  8.47%     - 13653s
     0     0 -436.73470    0 1438 -476.71446 -436.73470  8.39%     - 14018s
     0     0 -436.84903    0 1433 -476.71446 -436.84903  8.36%     - 14092s
     0     0 -436.89421    0 1430 -476.71446 -436.89421  8.35%     - 14110s
     0     0 -436.90158    0 1873 -476.71446 -436.90158  8.35%     - 14125s
     0     0 -436.92036    0 1432 -476.71446 -436.92036  8.35%     - 14138s
     0     0 -436.92689    0 1442 -476.71446 -436.92689  8.35%     - 14149s
     0     0 -436.92973    0 1869 -476.71446 -436.92973  8.35%     - 14161s
     0     0 -437.74098    0 1830 -476.71446 -437.74098  8.18%     - 14319s
     0     0 -438.32102    0 1824 -476.71446 -438.32102  8.05%     - 14547s
     0     0 -438.52137    0 1848 -476.71446 -438.52137  8.01%     - 14662s
     0     0 -438.53944    0 1846 -476.71446 -438.53944  8.01%     - 14701s
     0     0 -438.54937    0 1847 -476.71446 -438.54937  8.01%     - 14719s
     0     0 -438.54976    0 1850 -476.71446 -438.54976  8.01%     - 14728s
     0     0 -438.92021    0 1833 -476.71446 -438.92021  7.93%     - 14826s
     0     0 -439.09423    0 1844 -476.71446 -439.09423  7.89%     - 14982s
     0     0 -439.18292    0 1837 -476.71446 -439.18292  7.87%     - 15052s
     0     0 -439.22127    0 1844 -476.71446 -439.22127  7.86%     - 15081s
     0     0 -439.22787    0 1845 -476.71446 -439.22787  7.86%     - 15099s
     0     0 -439.23631    0 1850 -476.71446 -439.23631  7.86%     - 15116s
     0     0 -439.23659    0 1852 -476.71446 -439.23659  7.86%     - 15126s
     0     0 -439.76333    0 1854 -476.71446 -439.76333  7.75%     - 15252s
     0     0 -440.13339    0 1854 -476.71446 -440.13339  7.67%     - 15476s
     0     0 -440.16790    0 1851 -476.71446 -440.16790  7.67%     - 15501s
     0     0 -440.17982    0 1860 -476.71446 -440.17982  7.66%     - 15514s
     0     0 -440.18088    0 1859 -476.71446 -440.18088  7.66%     - 15524s
     0     0 -440.47698    0 1853 -476.71446 -440.47698  7.60%     - 15581s
     0     0 -440.62311    0 1850 -476.71446 -440.62311  7.57%     - 15693s
     0     0 -440.62515    0 1857 -476.71446 -440.62515  7.57%     - 15705s
     0     0 -440.95932    0 1845 -476.71446 -440.95932  7.50%     - 15799s
     0     0 -441.21980    0 1426 -476.71446 -441.21980  7.45%     - 15894s
     0     0 -441.33565    0 1426 -476.71446 -441.33565  7.42%     - 15957s
     0     0 -441.36273    0 1431 -476.71446 -441.36273  7.42%     - 16009s
     0     0 -441.40557    0 1863 -476.71446 -441.40557  7.41%     - 16063s
     0     0 -441.41643    0 1867 -476.71446 -441.41643  7.40%     - 16082s
     0     0 -441.41846    0 1863 -476.71446 -441.41846  7.40%     - 16095s
     0     0 -441.71191    0 1417 -476.71446 -441.71191  7.34%     - 16154s
     0     0 -441.79939    0 1425 -476.71446 -441.79939  7.32%     - 16213s
     0     0 -441.80567    0 1430 -476.71446 -441.80567  7.32%     - 16234s
     0     0 -441.80612    0 1433 -476.71446 -441.80612  7.32%     - 16244s
     0     0 -442.11440    0 1856 -476.71446 -442.11440  7.26%     - 16391s
     0     0 -442.18741    0 1868 -476.71446 -442.18741  7.24%     - 16496s
     0     0 -442.22102    0 1870 -476.71446 -442.22102  7.24%     - 16522s
     0     0 -442.22720    0 1875 -476.71446 -442.22720  7.23%     - 16538s
     0     0 -442.22909    0 1874 -476.71446 -442.22909  7.23%     - 16549s
     0     0 -442.62352    0 1416 -476.71446 -442.62352  7.15%     - 16598s
     0     0 -442.67436    0 1414 -476.71446 -442.67436  7.14%     - 16637s
     0     0 -442.67532    0 1422 -476.71446 -442.67532  7.14%     - 16651s
     0     0 -443.13982    0 1841 -476.71446 -443.13982  7.04%     - 16826s
     0     0 -443.33462    0 1854 -476.71446 -443.33462  7.00%     - 16961s
     0     0 -443.37532    0 1856 -476.71446 -443.37532  6.99%     - 16985s
     0     0 -443.37647    0 1859 -476.71446 -443.37647  6.99%     - 16995s
     0     0 -443.55706    0 1872 -476.71446 -443.55706  6.96%     - 17040s
     0     0 -443.69740    0 1868 -476.71446 -443.69740  6.93%     - 17135s
     0     0 -443.71732    0 1867 -476.71446 -443.71732  6.92%     - 17156s
     0     0 -443.71887    0 1870 -476.71446 -443.71887  6.92%     - 17168s
     0     0 -443.91263    0 1861 -476.71446 -443.91263  6.88%     - 17214s
     0     0 -444.13791    0 1427 -476.71446 -444.13791  6.83%     - 17248s
     0     0 -444.13800    0 1421 -476.71446 -444.13800  6.83%     - 17262s
     0     0 -444.20684    0 1859 -476.71446 -444.20684  6.82%     - 17308s
     0     0 -444.20684    0 1849 -476.71446 -444.20684  6.82%     - 17351s
     0     0 -444.30913    0 1843 -476.71446 -444.30913  6.80%     - 17425s
     0     0 -444.34731    0 1841 -476.71446 -444.34731  6.79%     - 17448s
     0     0 -444.36533    0 1845 -476.71446 -444.36533  6.79%     - 17466s
     0     0 -444.36733    0 1845 -476.71446 -444.36733  6.79%     - 17476s
     0     0 -444.41703    0 1840 -476.71446 -444.41703  6.78%     - 17514s
     0     0 -444.41703    0 1850 -476.71446 -444.41703  6.78%     - 17568s
     0     0 -444.81117    0 1843 -476.71446 -444.81117  6.69%     - 17788s
     0     0 -445.00780    0 1852 -476.71446 -445.00780  6.65%     - 17929s
     0     0 -445.20388    0 1848 -476.71446 -445.20388  6.61%     - 17993s
     0     0 -445.20388    0 1853 -476.71446 -445.20388  6.61%     - 18002s
     0     0 -445.24946    0 1852 -476.71446 -445.24946  6.60%     - 18040s
     0     0 -445.33441    0 1853 -476.71446 -445.33441  6.58%     - 18115s
     0     0 -445.33451    0 1855 -476.71446 -445.33451  6.58%     - 18132s
     0     0 -445.57315    0 1857 -476.71446 -445.57315  6.53%     - 18211s
     0     0 -445.59556    0 1854 -476.71446 -445.59556  6.53%     - 18234s
     0     0 -445.59556    0 1852 -476.71446 -445.59556  6.53%     - 18241s
     0     0 -445.60652    0 1855 -476.71446 -445.60652  6.53%     - 18267s
     0     0 -445.60652    0 1818 -476.71446 -445.60652  6.53%     - 18516s
     0     2 -445.60751    0 1815 -476.71446 -445.60751  6.53%     - 18642s
     1     3 -445.69453    1 1797 -476.71446 -445.61050  6.52%  1620 18651s
     2     4 -447.52255    2 1728 -476.71446 -445.61050  6.52%  4077 18713s
     3     5 -452.17812    3 1179 -476.71446 -445.61050  6.52%  5714 18801s
     5     7 -453.41044    4  936 -476.71446 -445.61050  6.52%  3636 18818s
     7     9 -453.99781    6  933 -476.71446 -445.61050  6.52%  2655 18824s
     8    10 -471.91253    6 1004 -476.71446 -445.61050  6.52%  3590 18927s
     9    11 -453.99781    7  966 -476.71446 -445.61050  6.52%  3217 18930s
    10    12 -462.51465    7  780 -476.71446 -445.61050  6.52%  3830 19022s
    11    13 -454.58518    8  927 -476.71446 -445.61050  6.52%  3535 19029s
    12    14 -466.54763    8  914 -476.71446 -445.61050  6.52%  4172 19142s
    13    15 -454.58518    9  926 -476.71446 -445.61050  6.52%  3854 19145s
    15    15     cutoff   10      -476.71446 -445.61050  6.52%  4030 19255s
    16    16 -455.46623   11  917 -476.71446 -445.61050  6.52%  3798 19260s
    17    17 -457.22833   12  902 -476.71446 -445.61050  6.52%  3613 19267s
    18    18 -457.52202   13  905 -476.71446 -445.61050  6.52%  3421 19270s
    21    21 -458.10939   16  904 -476.71446 -445.61050  6.52%  2953 19276s
    25    25 -473.59604   19  739 -476.71446 -445.61050  6.52%  2563 19298s
    26    26 -459.28412   20  903 -476.71446 -445.61050  6.52%  2469 19300s
    27    27 -474.84937   20  871 -476.71446 -445.61050  6.52%  2576 19356s
    28    28 -459.57781   21  900 -476.71446 -445.61050  6.52%  2508 19361s
    29    29 -460.16517   22  898 -476.71446 -445.61050  6.52%  2428 19365s
    33    31     cutoff   25      -476.71446 -445.61050  6.52%  2518 19494s
    34    32 -463.68938   26  890 -476.71446 -445.61050  6.52%  2464 19505s
    35    33 -463.68938   26  867 -476.71446 -445.61050  6.52%  2406 19510s
    36    34 -464.86412   27  847 -476.71446 -445.61050  6.52%  2349 19516s
    37    35 -468.38833   27 1002 -476.71446 -445.61050  6.52%  2306 19529s
    38    36 -465.74517   28  844 -476.71446 -445.61050  6.52%  2248 19532s
    40    38 -467.21359   30  779 -476.71446 -445.61050  6.52%  2139 19536s
    42    40 -467.80096   32  742 -476.71446 -445.61050  6.52%  2043 19540s
    45    43 -474.84937   34  611 -476.71446 -445.61050  6.52%  1921 19552s
    46    44 -475.43674   35  583 -476.71446 -445.61050  6.52%  1886 19555s
    49    43     cutoff   36      -476.71446 -445.61050  6.52%  1778 19560s
    54    42 -446.74325    1 1262 -476.71446 -445.69545  6.51%  1706 19627s
    55    43 -457.19870    2 1358 -476.71446 -445.69545  6.51%  6336 32781s
    56    44 -450.83801    2 1804 -476.71446 -445.69545  6.51%  8254 35788s
    57    45 -468.16290    3  731 -476.71446 -445.69545  6.51% 11034 41055s
    58    46 -468.21531    4  641 -476.71446 -445.69545  6.51% 10858 41072s
    59    47 -469.39005    4  479 -476.71446 -445.69545  6.51% 11451 42337s
    60    48 -469.51448    5  471 -476.71446 -445.69545  6.51% 11317 42396s
    61    49 -475.19715    5  413 -476.71446 -445.69545  6.51% 12764 45613s
    62    50 -475.72578    6  417 -476.71446 -445.69545  6.51% 12666 45742s
    63    51 -476.19567    7  312 -476.71446 -445.69545  6.51% 12500 45797s
    64    52 -476.66557    8  371 -476.71446 -445.69545  6.51% 12322 45828s
    65    51     cutoff    8      -476.71446 -445.69545  6.51% 12146 45840s
    67    51     cutoff    9      -476.71446 -445.69545  6.51% 11786 45846s
    70    52     cutoff   12      -476.71446 -445.69545  6.51% 11284 45851s
    72    50     cutoff   12      -476.71446 -445.69545  6.51% 10977 45855s
    74    50 -447.86622    2 1898 -476.71446 -447.52289  6.12% 11278 46814s
    75    51 -453.47514    3 1885 -476.71446 -447.52289  6.12% 14876 56437s
    76    52 -455.61023    4 1959 -476.71446 -447.52289  6.12% 14795 56635s
    77    53 -457.19822    5 1357 -476.71446 -447.52289  6.12% 14628 56656s
    78    54 -459.93927    6 1340 -476.71446 -447.52289  6.12% 14473 56675s
    79    53     cutoff    6      -476.71446 -447.52289  6.12% 20276 75868s
H   80    52                    -476.0777131 -447.52289  6.00% 20023 76082s
    81    55 -464.63821    8 1290 -476.07771 -447.52289  6.00% 19850 76263s

Cutting planes:
  Gomory: 2
  Zero half: 834

Explored 82 nodes (2234995 simplex iterations) in 86400.73 seconds
Thread count was 1 (of 80 available processors)

Solution count 5: -476.078 -476.714 -477.889 ... -14082.8

Time limit reached
Best objective -4.760777130569e+02, best bound -4.475228939208e+02, gap 5.9979%
